clasp version 2.1.3
Reading from asp/inst/pb_400_05.lp
Solving...
UNKNOWN

TIME LIMIT  : 1
Models      : 0+    
Time        : 1799.987s (Solving: 1795.14s 1st Model: 0.00s Unsat: 0.00s)
CPU Time    : 1795.940s
Choices     : 11175422
Conflicts   : 326430
Restarts    : 18     (Average: 18135.00 Last: 295381)

Atoms       : 682207 (Original: 20156 Auxiliary: 662051)
Rules       : 1376700 (1: 31730/1374257 2: 2043/0 3: 400/0)
Bodies      : 1316608
Equivalences: 1380992 (Atom=Atom: 7286 Body=Body: 8000 Other: 1365706)
Tight       : Yes

Variables   : 1303712 (Eliminated:    0 Frozen:    0)
Constraints : 3879191 (Binary: 67.5% Ternary: 32.4% Other:  0.1%)
Lemmas      : 326430 (Binary:  2.3% Ternary:  3.0% Other: 94.7%)
  Conflict  : 326430 (Average Length: 109.4) 
  Loop      : 0      (Average Length: 0.0) 
  Other     : 0      (Average Length: 0.0)
  Deleted   : 286753
